     Program PWSCF v.6.5 starts on  7Aug2020 at 11:51:57

     R & G space division:  proc/nbgrp/npool/nimage =       8
     Waiting for input...
     Reading input from standard input

     Current dimensions of program PWSCF are:
     Max number of different atomic species (ntypx) = 10
     Max number of k-points (npk) =  40000
     Max angular momentum in pseudopotentials (lmaxx) =  3
               file Si.pbe-n-kjpaw_psl.0.1.UPF: wavefunction(s)  3S renormalized

     Subspace diagonalization in iterative solution of the eigenvalue problem:
     a serial algorithm will be used

     Found symmetry operation: I + (  0.0000  0.5000  0.5000)
     This is a supercell, fractional translations are disabled
     Message from routine setup:
     using ibrav=0 with symmetry is DISCOURAGED, use correct ibrav instead

     bravais-lattice index     =            0
     lattice parameter (alat)  =      10.3296  a.u.
     unit-cell volume          =    1102.1598 (a.u.)^3
     number of atoms/cell      =            8
     number of atomic types    =            1
     number of electrons       =        32.00
     number of Kohn-Sham states=           20
     kinetic-energy cutoff     =      36.0000  Ry
     charge density cutoff     =     144.0000  Ry
     convergence threshold     =      1.0E-08
     mixing beta               =       0.7000
     number of iterations used =            8  plain     mixing
     Exchange-correlation= SLA PW PBX PBC
                           (   1   4   3   4   0   0   0)

     celldm(1)=  10.329553  celldm(2)=   0.000000  celldm(3)=   0.000000
     celldm(4)=   0.000000  celldm(5)=   0.000000  celldm(6)=   0.000000

     crystal axes: (cart. coord. in units of alat)
               a(1) = (   1.000000   0.000000   0.000000 )
               a(2) = (   0.000000   1.000000   0.000000 )
               a(3) = (   0.000000   0.000000   1.000000 )

     reciprocal axes: (cart. coord. in units 2 pi/alat)
               b(1) = (  1.000000  0.000000  0.000000 )
               b(2) = (  0.000000  1.000000  0.000000 )
               b(3) = (  0.000000  0.000000  1.000000 )

     PseudoPot. # 1 for Si read from file:
     /home/adi/work/QE/Si/pseudo/Si.pbe-n-kjpaw_psl.0.1.UPF
     MD5 check sum: 0810ef13ebffcf5dbabd57b297315270
     Pseudo is Projector augmented-wave + core cor, Zval =  4.0
     Generated using "atomic" code by A. Dal Corso v.5.0.2 svn rev. 9415
     Shape of augmentation charge: PSQ
     Using radial grid of 1141 points,  4 beta functions with:
                l(1) =   0
                l(2) =   0
                l(3) =   1
                l(4) =   1
     Q(r) pseudized with 0 coefficients

     atomic species   valence    mass     pseudopotential
        Si             4.00    28.08600     Si( 1.00)

     12 Sym. Ops., with inversion, found

   Cartesian axes

     site n.     atom                  positions (alat units)
         1           Si  tau(   1) = (   0.8750000   0.8750000   0.8750000  )
         2           Si  tau(   2) = (   0.8750000   0.3750000   0.3750000  )
         3           Si  tau(   3) = (   0.3750000   0.8750000   0.3750000  )
         4           Si  tau(   4) = (   0.3750000   0.3750000   0.8750000  )
         5           Si  tau(   5) = (   0.1250000   0.1250000   0.1250000  )
         6           Si  tau(   6) = (   0.1250000   0.6250000   0.6250000  )
         7           Si  tau(   7) = (   0.6250000   0.1250000   0.6250000  )
         8           Si  tau(   8) = (   0.6250000   0.6250000   0.1250000  )

     number of k points=    13  Gaussian smearing, width (Ry)=  0.0100
                       cart. coord. in units 2pi/alat
        k(    1) = (   0.0000000   0.0000000   0.0000000), wk =   0.0312500
        k(    2) = (   0.0000000   0.0000000   0.2500000), wk =   0.1875000
        k(    3) = (   0.0000000   0.0000000  -0.5000000), wk =   0.0937500
        k(    4) = (   0.0000000   0.2500000   0.2500000), wk =   0.1875000
        k(    5) = (   0.0000000   0.2500000  -0.5000000), wk =   0.3750000
        k(    6) = (   0.0000000  -0.5000000  -0.5000000), wk =   0.0937500
        k(    7) = (   0.2500000   0.2500000   0.2500000), wk =   0.0625000
        k(    8) = (   0.2500000   0.2500000  -0.5000000), wk =   0.1875000
        k(    9) = (   0.2500000  -0.5000000  -0.5000000), wk =   0.1875000
        k(   10) = (  -0.5000000  -0.5000000  -0.5000000), wk =   0.0312500
        k(   11) = (   0.0000000   0.2500000  -0.2500000), wk =   0.1875000
        k(   12) = (  -0.2500000   0.2500000   0.2500000), wk =   0.1875000
        k(   13) = (  -0.2500000  -0.5000000   0.2500000), wk =   0.1875000

     Check: negative core charge=   -0.000003

     Initial potential from superposition of free atoms

     starting charge   31.99553, renormalised to   32.00000
     Starting wfcs are   32 randomized atomic wfcs
     Checking if some PAW data can be deallocated...

     Self-consistent Calculation

     iteration #  1     ecut=    36.00 Ry     beta= 0.70
     Davidson diagonalization with overlap
     ethr =  1.00E-02,  avg # of iterations =  3.2

     Threshold (ethr) on eigenvalues was too large:
     Diagonalizing with lowered threshold

     Davidson diagonalization with overlap
     ethr =  6.99E-04,  avg # of iterations =  1.1

     total energy              =    -373.80732694 Ry
     Harris-Foulkes estimate   =    -373.85962189 Ry
     estimated scf accuracy    <       0.22203331 Ry

[...]

     total energy              =    -373.81649365 Ry
     Harris-Foulkes estimate   =    -373.81649368 Ry
     estimated scf accuracy    <       0.00000004 Ry

     iteration #  7     ecut=    36.00 Ry     beta= 0.70
     Davidson diagonalization with overlap
     ethr =  1.10E-10,  avg # of iterations =  3.0

     End of self-consistent calculation

          k = 0.0000 0.0000 0.0000 (  3959 PWs)   bands (ev):

    -5.8250  -1.7489  -1.7488  -1.7488  -1.7488  -1.7488  -1.7488   3.2061
     3.2061   3.2061   3.2061   3.2061   3.2061   6.0083   6.0083   6.0083
     6.7575   6.7575   6.7575   6.7575

[...]

          k =-0.5000-0.5000-0.5000 (  4032 PWs)   bands (ev):

[...]

          k = 0.0000 0.2500-0.2500 (  4032 PWs)   bands (ev):

[...]

          k =-0.2500-0.5000 0.2500 (  4016 PWs)   bands (ev):

    -4.2952  -4.2951  -3.0102  -3.0102  -0.7102  -0.7102   0.7717   0.7717
     2.6127   2.6127   3.8915   3.8915   4.1950   4.1950   4.4497   4.4497
     8.2353   8.2353   9.0312   9.0312

     the Fermi energy is     6.3229 ev

!    total energy              =    -373.81649366 Ry
     Harris-Foulkes estimate   =    -373.81649366 Ry
     estimated scf accuracy    <          1.2E-09 Ry

     total all-electron energy =     -4640.583438 Ry

     The total energy is the sum of the following terms:

     one-electron contribution =      22.32601338 Ry
     hartree contribution      =       4.46532657 Ry
     xc contribution           =     -48.93202180 Ry
     ewald contribution        =     -66.75121016 Ry
     one-center paw contrib.   =    -284.92459907 Ry
     smearing contrib. (-TS)   =      -0.00000259 Ry

     convergence has been achieved in   7 iterations

     Forces acting on atoms (cartesian axes, Ry/au):

     atom    1 type  1   force =    -0.00000040   -0.00000040   -0.00000040
     atom    2 type  1   force =    -0.00000009    0.00000031    0.00000031
     atom    3 type  1   force =     0.00000031   -0.00000009    0.00000031
     atom    4 type  1   force =     0.00000031    0.00000031   -0.00000009
     atom    5 type  1   force =     0.00000040    0.00000040    0.00000040
     atom    6 type  1   force =     0.00000009   -0.00000031   -0.00000031
     atom    7 type  1   force =    -0.00000031    0.00000009   -0.00000031
     atom    8 type  1   force =    -0.00000031   -0.00000031    0.00000009

     Total force =     0.000001     Total SCF correction =     0.000018
     SCF correction compared to forces is large: reduce conv_thr to get better values

     Computing stress (Cartesian axis) and pressure

          total   stress  (Ry/bohr**3)                   (kbar)     P=        0.79
   0.00000536  -0.00000000  -0.00000000            0.79       -0.00       -0.00
  -0.00000000   0.00000536  -0.00000000           -0.00        0.79       -0.00
  -0.00000000  -0.00000000   0.00000536           -0.00       -0.00        0.79

     Writing output data file ./Si.save/

     General routines

     Parallel routines

   This run was terminated on:  11:52: 2   7Aug2020

   JOB DONE.